p cnf 667 1293
50 0
20 51 0
19 51 0
20 19 52 0
17 51 0
20 17 52 0
19 17 52 0
20 19 17 53 0
13 54 0
11 54 0
13 11 55 0
1 54 0
13 1 55 0
11 1 55 0
13 11 1 56 0
16 57 0
-54 57 0
-55 58 0
-56 59 0
16 -54 58 0
16 -55 59 0
16 -56 60 0
-51 61 0
-52 62 0
-53 63 0
-57 61 0
-58 62 0
-59 63 0
-60 64 0
-51 -57 62 0
-51 -58 63 0
-51 -59 64 0
-51 -60 65 0
-52 -57 63 0
-52 -58 64 0
-52 -59 65 0
-52 -60 66 0
-53 -57 64 0
-53 -58 65 0
-53 -59 66 0
-53 -60 67 0
-23 68 0
-22 68 0
-23 -22 69 0
-68 70 0
-69 71 0
-62 70 0
-64 71 0
-66 72 0
-68 -62 71 0
-68 -64 72 0
-68 -66 73 0
-69 -62 72 0
-69 -64 73 0
-73 0
74 0
-74 75 0
-20 75 0
-74 -20 76 0
-19 75 0
-74 -19 76 0
-20 -19 76 0
-74 -20 -19 77 0
-17 78 0
-16 78 0
-17 -16 79 0
-13 80 0
-11 80 0
-13 -11 81 0
-1 80 0
-13 -1 81 0
-11 -1 81 0
-13 -11 -1 82 0
-78 83 0
-79 84 0
-80 83 0
-81 84 0
-82 85 0
-78 -80 84 0
-78 -81 85 0
-78 -82 86 0
-79 -80 85 0
-79 -81 86 0
-79 -82 87 0
-75 88 0
-76 89 0
-77 90 0
-83 88 0
-84 89 0
-85 90 0
-86 91 0
-87 92 0
-75 -83 89 0
-75 -84 90 0
-75 -85 91 0
-75 -86 92 0
-75 -87 93 0
-76 -83 90 0
-76 -84 91 0
-76 -85 92 0
-76 -86 93 0
-77 -83 91 0
-77 -84 92 0
-77 -85 93 0
-93 0
23 94 0
22 94 0
23 22 95 0
-94 96 0
-95 97 0
-89 96 0
-91 97 0
-93 98 0
-94 -89 97 0
-94 -91 98 0
-95 -89 98 0
-98 0
99 0
-99 100 0
19 100 0
-99 19 101 0
12 102 0
11 102 0
12 11 103 0
2 102 0
12 2 103 0
11 2 103 0
12 11 2 104 0
-100 105 0
-101 106 0
-102 105 0
-103 106 0
-104 107 0
-100 -102 106 0
-100 -103 107 0
-100 -104 108 0
-101 -102 107 0
-101 -103 108 0
-101 -104 109 0
-26 110 0
-25 110 0
-26 -25 111 0
-110 112 0
-111 113 0
-106 112 0
-108 113 0
-110 -106 113 0
-110 -108 114 0
-111 -106 114 0
-114 0
115 0
-115 116 0
-19 116 0
-115 -19 117 0
-12 118 0
-11 118 0
-12 -11 119 0
-2 118 0
-12 -2 119 0
-11 -2 119 0
-12 -11 -2 120 0
-116 121 0
-117 122 0
-118 121 0
-119 122 0
-120 123 0
-116 -118 122 0
-116 -119 123 0
-116 -120 124 0
-117 -118 123 0
-117 -119 124 0
-117 -120 125 0
26 126 0
25 126 0
26 25 127 0
-126 128 0
-127 129 0
-122 128 0
-124 129 0
-126 -122 129 0
-126 -124 130 0
-127 -122 130 0
-130 0
131 0
-131 132 0
16 132 0
-131 16 133 0
14 134 0
13 134 0
14 13 135 0
3 134 0
14 3 135 0
13 3 135 0
14 13 3 136 0
-132 137 0
-133 138 0
-134 137 0
-135 138 0
-136 139 0
-132 -134 138 0
-132 -135 139 0
-132 -136 140 0
-133 -134 139 0
-133 -135 140 0
-133 -136 141 0
-29 142 0
-28 142 0
-29 -28 143 0
-142 144 0
-143 145 0
-138 144 0
-140 145 0
-142 -138 145 0
-142 -140 146 0
-143 -138 146 0
-146 0
147 0
-147 148 0
-16 148 0
-147 -16 149 0
-14 150 0
-13 150 0
-14 -13 151 0
-3 150 0
-14 -3 151 0
-13 -3 151 0
-14 -13 -3 152 0
-148 153 0
-149 154 0
-150 153 0
-151 154 0
-152 155 0
-148 -150 154 0
-148 -151 155 0
-148 -152 156 0
-149 -150 155 0
-149 -151 156 0
-149 -152 157 0
29 158 0
28 158 0
29 28 159 0
-158 160 0
-159 161 0
-154 160 0
-156 161 0
-158 -154 161 0
-158 -156 162 0
-159 -154 162 0
-162 0
163 0
20 164 0
19 164 0
20 19 165 0
18 164 0
20 18 165 0
19 18 165 0
20 19 18 166 0
13 167 0
11 167 0
13 11 168 0
4 167 0
13 4 168 0
11 4 168 0
13 11 4 169 0
15 170 0
-167 170 0
-168 171 0
-169 172 0
15 -167 171 0
15 -168 172 0
15 -169 173 0
-164 174 0
-165 175 0
-166 176 0
-170 174 0
-171 175 0
-172 176 0
-173 177 0
-164 -170 175 0
-164 -171 176 0
-164 -172 177 0
-164 -173 178 0
-165 -170 176 0
-165 -171 177 0
-165 -172 178 0
-165 -173 179 0
-166 -170 177 0
-166 -171 178 0
-166 -172 179 0
-166 -173 180 0
-32 181 0
-31 181 0
-32 -31 182 0
-181 183 0
-182 184 0
-175 183 0
-177 184 0
-179 185 0
-181 -175 184 0
-181 -177 185 0
-181 -179 186 0
-182 -175 185 0
-182 -177 186 0
-186 0
187 0
-187 188 0
-20 188 0
-187 -20 189 0
-19 188 0
-187 -19 189 0
-20 -19 189 0
-187 -20 -19 190 0
-18 191 0
-15 191 0
-18 -15 192 0
-13 193 0
-11 193 0
-13 -11 194 0
-4 193 0
-13 -4 194 0
-11 -4 194 0
-13 -11 -4 195 0
-191 196 0
-192 197 0
-193 196 0
-194 197 0
-195 198 0
-191 -193 197 0
-191 -194 198 0
-191 -195 199 0
-192 -193 198 0
-192 -194 199 0
-192 -195 200 0
-188 201 0
-189 202 0
-190 203 0
-196 201 0
-197 202 0
-198 203 0
-199 204 0
-200 205 0
-188 -196 202 0
-188 -197 203 0
-188 -198 204 0
-188 -199 205 0
-188 -200 206 0
-189 -196 203 0
-189 -197 204 0
-189 -198 205 0
-189 -199 206 0
-190 -196 204 0
-190 -197 205 0
-190 -198 206 0
-206 0
32 207 0
31 207 0
32 31 208 0
-207 209 0
-208 210 0
-202 209 0
-204 210 0
-206 211 0
-207 -202 210 0
-207 -204 211 0
-208 -202 211 0
-211 0
212 0
18 213 0
16 213 0
18 16 214 0
14 213 0
18 14 214 0
16 14 214 0
18 16 14 215 0
12 216 0
11 216 0
12 11 217 0
5 216 0
12 5 217 0
11 5 217 0
12 11 5 218 0
13 219 0
-216 219 0
-217 220 0
-218 221 0
13 -216 220 0
13 -217 221 0
13 -218 222 0
-213 223 0
-214 224 0
-215 225 0
-219 223 0
-220 224 0
-221 225 0
-222 226 0
-213 -219 224 0
-213 -220 225 0
-213 -221 226 0
-213 -222 227 0
-214 -219 225 0
-214 -220 226 0
-214 -221 227 0
-214 -222 228 0
-215 -219 226 0
-215 -220 227 0
-215 -221 228 0
-215 -222 229 0
-35 230 0
-34 230 0
-35 -34 231 0
-230 232 0
-231 233 0
-224 232 0
-226 233 0
-228 234 0
-230 -224 233 0
-230 -226 234 0
-230 -228 235 0
-231 -224 234 0
-231 -226 235 0
-235 0
236 0
-236 237 0
-18 237 0
-236 -18 238 0
-16 237 0
-236 -16 238 0
-18 -16 238 0
-236 -18 -16 239 0
-14 240 0
-13 240 0
-14 -13 241 0
-12 242 0
-11 242 0
-12 -11 243 0
-5 242 0
-12 -5 243 0
-11 -5 243 0
-12 -11 -5 244 0
-240 245 0
-241 246 0
-242 245 0
-243 246 0
-244 247 0
-240 -242 246 0
-240 -243 247 0
-240 -244 248 0
-241 -242 247 0
-241 -243 248 0
-241 -244 249 0
-237 250 0
-238 251 0
-239 252 0
-245 250 0
-246 251 0
-247 252 0
-248 253 0
-249 254 0
-237 -245 251 0
-237 -246 252 0
-237 -247 253 0
-237 -248 254 0
-237 -249 255 0
-238 -245 252 0
-238 -246 253 0
-238 -247 254 0
-238 -248 255 0
-239 -245 253 0
-239 -246 254 0
-239 -247 255 0
-255 0
35 256 0
34 256 0
35 34 257 0
-256 258 0
-257 259 0
-251 258 0
-253 259 0
-255 260 0
-256 -251 259 0
-256 -253 260 0
-257 -251 260 0
-260 0
261 0
20 262 0
19 262 0
20 19 263 0
17 262 0
20 17 263 0
19 17 263 0
20 19 17 264 0
14 265 0
11 265 0
14 11 266 0
6 265 0
14 6 266 0
11 6 266 0
14 11 6 267 0
16 268 0
-265 268 0
-266 269 0
-267 270 0
16 -265 269 0
16 -266 270 0
16 -267 271 0
-262 272 0
-263 273 0
-264 274 0
-268 272 0
-269 273 0
-270 274 0
-271 275 0
-262 -268 273 0
-262 -269 274 0
-262 -270 275 0
-262 -271 276 0
-263 -268 274 0
-263 -269 275 0
-263 -270 276 0
-263 -271 277 0
-264 -268 275 0
-264 -269 276 0
-264 -270 277 0
-264 -271 278 0
-38 279 0
-37 279 0
-38 -37 280 0
-279 281 0
-280 282 0
-273 281 0
-275 282 0
-277 283 0
-279 -273 282 0
-279 -275 283 0
-279 -277 284 0
-280 -273 283 0
-280 -275 284 0
-284 0
285 0
-285 286 0
-20 286 0
-285 -20 287 0
-19 286 0
-285 -19 287 0
-20 -19 287 0
-285 -20 -19 288 0
-17 289 0
-16 289 0
-17 -16 290 0
-14 291 0
-11 291 0
-14 -11 292 0
-6 291 0
-14 -6 292 0
-11 -6 292 0
-14 -11 -6 293 0
-289 294 0
-290 295 0
-291 294 0
-292 295 0
-293 296 0
-289 -291 295 0
-289 -292 296 0
-289 -293 297 0
-290 -291 296 0
-290 -292 297 0
-290 -293 298 0
-286 299 0
-287 300 0
-288 301 0
-294 299 0
-295 300 0
-296 301 0
-297 302 0
-298 303 0
-286 -294 300 0
-286 -295 301 0
-286 -296 302 0
-286 -297 303 0
-286 -298 304 0
-287 -294 301 0
-287 -295 302 0
-287 -296 303 0
-287 -297 304 0
-288 -294 302 0
-288 -295 303 0
-288 -296 304 0
-304 0
38 305 0
37 305 0
38 37 306 0
-305 307 0
-306 308 0
-300 307 0
-302 308 0
-304 309 0
-305 -300 308 0
-305 -302 309 0
-306 -300 309 0
-309 0
310 0
-310 311 0
20 311 0
-310 20 312 0
19 311 0
-310 19 312 0
20 19 312 0
-310 20 19 313 0
17 314 0
15 314 0
17 15 315 0
13 314 0
17 13 315 0
15 13 315 0
17 15 13 316 0
12 317 0
11 317 0
12 11 318 0
7 317 0
12 7 318 0
11 7 318 0
12 11 7 319 0
-314 320 0
-315 321 0
-316 322 0
-317 320 0
-318 321 0
-319 322 0
-314 -317 321 0
-314 -318 322 0
-314 -319 323 0
-315 -317 322 0
-315 -318 323 0
-315 -319 324 0
-316 -317 323 0
-316 -318 324 0
-316 -319 325 0
-311 326 0
-312 327 0
-313 328 0
-320 326 0
-321 327 0
-322 328 0
-323 329 0
-324 330 0
-325 331 0
-311 -320 327 0
-311 -321 328 0
-311 -322 329 0
-311 -323 330 0
-311 -324 331 0
-311 -325 332 0
-312 -320 328 0
-312 -321 329 0
-312 -322 330 0
-312 -323 331 0
-312 -324 332 0
-312 -325 333 0
-313 -320 329 0
-313 -321 330 0
-313 -322 331 0
-313 -323 332 0
-313 -324 333 0
-313 -325 334 0
-41 335 0
-40 335 0
-41 -40 336 0
-335 337 0
-336 338 0
-327 337 0
-329 338 0
-331 339 0
-333 340 0
-335 -327 338 0
-335 -329 339 0
-335 -331 340 0
-335 -333 341 0
-336 -327 339 0
-336 -329 340 0
-336 -331 341 0
-341 0
342 0
-342 343 0
-20 343 0
-342 -20 344 0
-19 343 0
-342 -19 344 0
-20 -19 344 0
-342 -20 -19 345 0
-17 346 0
-15 346 0
-17 -15 347 0
-13 346 0
-17 -13 347 0
-15 -13 347 0
-17 -15 -13 348 0
-12 349 0
-11 349 0
-12 -11 350 0
-7 349 0
-12 -7 350 0
-11 -7 350 0
-12 -11 -7 351 0
-346 352 0
-347 353 0
-348 354 0
-349 352 0
-350 353 0
-351 354 0
-346 -349 353 0
-346 -350 354 0
-346 -351 355 0
-347 -349 354 0
-347 -350 355 0
-347 -351 356 0
-348 -349 355 0
-348 -350 356 0
-348 -351 357 0
-343 358 0
-344 359 0
-345 360 0
-352 358 0
-353 359 0
-354 360 0
-355 361 0
-356 362 0
-357 363 0
-343 -352 359 0
-343 -353 360 0
-343 -354 361 0
-343 -355 362 0
-343 -356 363 0
-344 -352 360 0
-344 -353 361 0
-344 -354 362 0
-344 -355 363 0
-345 -352 361 0
-345 -353 362 0
-345 -354 363 0
-363 0
41 364 0
40 364 0
41 40 365 0
-364 366 0
-365 367 0
-359 366 0
-361 367 0
-363 368 0
-364 -359 367 0
-364 -361 368 0
-365 -359 368 0
-368 0
369 0
-369 370 0
18 370 0
-369 18 371 0
16 370 0
-369 16 371 0
18 16 371 0
-369 18 16 372 0
15 373 0
14 373 0
15 14 374 0
13 375 0
11 375 0
13 11 376 0
8 375 0
13 8 376 0
11 8 376 0
13 11 8 377 0
-373 378 0
-374 379 0
-375 378 0
-376 379 0
-377 380 0
-373 -375 379 0
-373 -376 380 0
-373 -377 381 0
-374 -375 380 0
-374 -376 381 0
-374 -377 382 0
-370 383 0
-371 384 0
-372 385 0
-378 383 0
-379 384 0
-380 385 0
-381 386 0
-382 387 0
-370 -378 384 0
-370 -379 385 0
-370 -380 386 0
-370 -381 387 0
-370 -382 388 0
-371 -378 385 0
-371 -379 386 0
-371 -380 387 0
-371 -381 388 0
-371 -382 389 0
-372 -378 386 0
-372 -379 387 0
-372 -380 388 0
-372 -381 389 0
-372 -382 390 0
-390 0
-44 391 0
-43 391 0
-44 -43 392 0
-391 393 0
-392 394 0
-384 393 0
-386 394 0
-388 395 0
-390 396 0
-391 -384 394 0
-391 -386 395 0
-391 -388 396 0
-392 -384 395 0
-392 -386 396 0
-396 0
397 0
-18 398 0
-16 398 0
-18 -16 399 0
-15 398 0
-18 -15 399 0
-16 -15 399 0
-18 -16 -15 400 0
-13 401 0
-11 401 0
-13 -11 402 0
-8 401 0
-13 -8 402 0
-11 -8 402 0
-13 -11 -8 403 0
-14 404 0
-401 404 0
-402 405 0
-403 406 0
-14 -401 405 0
-14 -402 406 0
-14 -403 407 0
-398 408 0
-399 409 0
-400 410 0
-404 408 0
-405 409 0
-406 410 0
-407 411 0
-398 -404 409 0
-398 -405 410 0
-398 -406 411 0
-398 -407 412 0
-399 -404 410 0
-399 -405 411 0
-399 -406 412 0
-399 -407 413 0
-400 -404 411 0
-400 -405 412 0
-400 -406 413 0
-413 0
44 414 0
43 414 0
44 43 415 0
-414 416 0
-415 417 0
-409 416 0
-411 417 0
-413 418 0
-414 -409 417 0
-414 -411 418 0
-415 -409 418 0
-418 0
419 0
18 420 0
16 420 0
18 16 421 0
13 422 0
11 422 0
13 11 423 0
9 422 0
13 9 423 0
11 9 423 0
13 11 9 424 0
-420 425 0
-421 426 0
-422 425 0
-423 426 0
-424 427 0
-420 -422 426 0
-420 -423 427 0
-420 -424 428 0
-421 -422 427 0
-421 -423 428 0
-421 -424 429 0
-47 430 0
-46 430 0
-47 -46 431 0
-430 432 0
-431 433 0
-426 432 0
-428 433 0
-430 -426 433 0
-430 -428 434 0
-431 -426 434 0
-434 0
435 0
-435 436 0
-18 436 0
-435 -18 437 0
-16 436 0
-435 -16 437 0
-18 -16 437 0
-435 -18 -16 438 0
-13 439 0
-11 439 0
-13 -11 440 0
-9 439 0
-13 -9 440 0
-11 -9 440 0
-13 -11 -9 441 0
-436 442 0
-437 443 0
-438 444 0
-439 442 0
-440 443 0
-441 444 0
-436 -439 443 0
-436 -440 444 0
-436 -441 445 0
-437 -439 444 0
-437 -440 445 0
-437 -441 446 0
-438 -439 445 0
-438 -440 446 0
-438 -441 447 0
-447 0
47 448 0
46 448 0
47 46 449 0
-448 450 0
-449 451 0
-443 450 0
-445 451 0
-447 452 0
-448 -443 451 0
-448 -445 452 0
-449 -443 452 0
-452 0
453 0
15 454 0
12 454 0
15 12 455 0
10 454 0
15 10 455 0
12 10 455 0
15 12 10 456 0
18 457 0
-454 457 0
-455 458 0
-456 459 0
18 -454 458 0
18 -455 459 0
18 -456 460 0
-460 0
-49 461 0
-458 461 0
-460 462 0
-49 -458 462 0
-462 0
463 0
-15 464 0
-12 464 0
-15 -12 465 0
-10 464 0
-15 -10 465 0
-12 -10 465 0
-15 -12 -10 466 0
-18 467 0
-464 467 0
-465 468 0
-466 469 0
-18 -464 468 0
-18 -465 469 0
-18 -466 470 0
-470 0
49 471 0
-468 471 0
-470 472 0
49 -468 472 0
-472 0
-23 22 0
-26 25 0
-29 28 0
-32 31 0
-35 34 0
-38 37 0
-41 40 0
-44 43 0
-47 46 0
-473 0
-1 474 0
-2 474 0
-1 -2 475 0
-3 476 0
-4 476 0
-3 -4 477 0
-474 478 0
-476 478 0
-474 -476 479 0
-475 480 0
-477 480 0
-475 -477 481 0
-479 482 0
-480 482 0
-479 -480 483 0
-5 484 0
-6 484 0
-5 -6 485 0
-7 486 0
-8 486 0
-7 -8 487 0
-484 488 0
-486 488 0
-484 -486 489 0
-485 490 0
-487 490 0
-485 -487 491 0
-489 492 0
-490 492 0
-489 -490 493 0
-478 494 0
-488 494 0
-478 -488 495 0
-483 496 0
-493 496 0
-483 -493 497 0
-495 498 0
-496 498 0
-495 -496 499 0
-482 500 0
-492 500 0
-482 -492 501 0
-481 502 0
-491 502 0
-481 -491 503 0
-501 504 0
-502 504 0
-501 -502 505 0
-498 506 0
-500 506 0
-498 -500 507 0
-499 508 0
-504 508 0
-499 -504 509 0
-497 510 0
-505 510 0
-497 -505 511 0
-9 512 0
-10 512 0
-9 -10 513 0
-11 514 0
-12 514 0
-11 -12 515 0
-512 516 0
-514 516 0
-512 -514 517 0
-513 518 0
-515 518 0
-513 -515 519 0
-517 520 0
-518 520 0
-517 -518 521 0
-13 522 0
-14 522 0
-13 -14 523 0
-15 524 0
-16 524 0
-15 -16 525 0
-522 526 0
-524 526 0
-522 -524 527 0
-523 528 0
-525 528 0
-523 -525 529 0
-527 530 0
-528 530 0
-527 -528 531 0
-516 532 0
-526 532 0
-516 -526 533 0
-521 534 0
-531 534 0
-521 -531 535 0
-533 536 0
-534 536 0
-533 -534 537 0
-520 538 0
-530 538 0
-520 -530 539 0
-519 540 0
-529 540 0
-519 -529 541 0
-539 542 0
-540 542 0
-539 -540 543 0
-536 544 0
-538 544 0
-536 -538 545 0
-537 546 0
-542 546 0
-537 -542 547 0
-535 548 0
-543 548 0
-535 -543 549 0
-17 550 0
-18 550 0
-17 -18 551 0
-19 552 0
-20 552 0
-19 -20 553 0
-550 554 0
-552 554 0
-550 -552 555 0
-551 556 0
-553 556 0
-551 -553 557 0
-555 558 0
-556 558 0
-555 -556 559 0
-473 560 0
-473 560 0
-473 -473 561 0
-473 562 0
-473 562 0
-473 -473 563 0
-560 564 0
-562 564 0
-560 -562 565 0
-561 566 0
-563 566 0
-561 -563 567 0
-565 568 0
-566 568 0
-565 -566 569 0
-554 570 0
-564 570 0
-554 -564 571 0
-559 572 0
-569 572 0
-559 -569 573 0
-571 574 0
-572 574 0
-571 -572 575 0
-558 576 0
-568 576 0
-558 -568 577 0
-557 578 0
-567 578 0
-557 -567 579 0
-577 580 0
-578 580 0
-577 -578 581 0
-574 582 0
-576 582 0
-574 -576 583 0
-575 584 0
-580 584 0
-575 -580 585 0
-573 586 0
-581 586 0
-573 -581 587 0
-532 588 0
-570 588 0
-532 -570 589 0
-547 590 0
-585 590 0
-547 -585 591 0
-589 592 0
-590 592 0
-589 -590 593 0
-545 594 0
-583 594 0
-545 -583 595 0
-549 596 0
-587 596 0
-549 -587 597 0
-595 598 0
-596 598 0
-595 -596 599 0
-592 600 0
-594 600 0
-592 -594 601 0
-593 602 0
-598 602 0
-593 -598 603 0
-544 604 0
-582 604 0
-544 -582 605 0
-548 606 0
-586 606 0
-548 -586 607 0
-605 608 0
-606 608 0
-605 -606 609 0
-546 610 0
-584 610 0
-546 -584 611 0
-541 612 0
-579 612 0
-541 -579 613 0
-611 614 0
-612 614 0
-611 -612 615 0
-608 616 0
-610 616 0
-608 -610 617 0
-609 618 0
-614 618 0
-609 -614 619 0
-600 620 0
-604 620 0
-600 -604 621 0
-601 622 0
-616 622 0
-601 -616 623 0
-602 624 0
-617 624 0
-602 -617 625 0
-603 626 0
-618 626 0
-603 -618 627 0
-494 628 0
-588 628 0
-494 -588 629 0
-509 630 0
-623 630 0
-509 -623 631 0
-629 632 0
-630 632 0
-629 -630 633 0
-507 634 0
-621 634 0
-507 -621 635 0
-511 636 0
-625 636 0
-511 -625 637 0
-635 638 0
-636 638 0
-635 -636 639 0
-632 640 0
-634 640 0
-632 -634 641 0
-633 642 0
-638 642 0
-633 -638 643 0
-506 644 0
-620 644 0
-506 -620 645 0
-510 646 0
-624 646 0
-510 -624 647 0
-645 648 0
-646 648 0
-645 -646 649 0
-508 650 0
-622 650 0
-508 -622 651 0
-503 652 0
-626 652 0
-503 -626 653 0
-651 654 0
-652 654 0
-651 -652 655 0
-648 656 0
-650 656 0
-648 -650 657 0
-649 658 0
-654 658 0
-649 -654 659 0
-640 660 0
-644 660 0
-640 -644 661 0
-641 662 0
-656 662 0
-641 -656 663 0
-642 664 0
-657 664 0
-642 -657 665 0
-643 666 0
-658 666 0
-643 -658 667 0
-664 0
